JulietBench/Juliet_Based_Patch_Bench/linux/CWE-189-Numeric-Errors/CVE_2011_3191_9438fabb73eb48055b58b89fc51e0bc4db22fabd/ResultCIFSFindNext_SnippetEQ.smt2
; benchmark generated from python API
(set-info :status unknown)
(declare-fun R () (_ BitVec 32))
(declare-fun rdi () (_ BitVec 64))
(assert
 (let (($x86 (= (_ bv0 32) R)))
 (let ((?x6 ((_ extract 31 0) rdi)))
 (let (($x7 (bvule ?x6 (_ bv4095 32))))
 (let (($x90 (and $x7 $x86)))
 (let (($x84 (= (_ bv4294967274 32) R)))
 (let (($x71 (bvugt ?x6 (_ bv4095 32))))
 (let (($x89 (and $x71 $x84)))
 (let (($x91 (or $x89 $x90)))
 (let (($x11 (bvsge (_ bv4095 32) ?x6)))
 (let (($x87 (and $x11 $x86)))
 (let (($x41 (bvslt (_ bv4095 32) ?x6)))
 (let (($x85 (and $x41 $x84)))
 (let (($x88 (or $x85 $x87)))
 (and $x88 $x91)))))))))))))))
(check-sat)
